instancias/entrada010.lp
Maximize
 566x1 + 393x2 + 923x3 + 901x4 + 651x5 + 537x6 + 355x7 + 670x8 + 221x9 + 775x10 + 725x11 + 775x12 + 585x13 + 274x14 + 609x15 + 964x16 + 93x17 + 276x18 + 585x19 + 276x20 + 62x21 + 13x22 + 729x23 + 965x24 + 714x25 + 754x26 + 840x27 + 434x28 + 334x29 + 356x30 + 398x31 + 732x32 + 815x33 + 946x34 + 191x35 + 711x36 + 959x37 + 682x38 + 384x39 + 687x40 + 317x41 + 707x42 + 171x43 + 597x44 + 210x45 + 585x46 + 118x47 + 217x48 + 766x49 + 484x50
Subject To
 641x1 + 309x2 + 431x3 + 67x4 + 293x5 + 808x6 + 419x7 + 921x8 + 107x9 + 88x10 + 249x11 + 830x12 + 815x13 + 241x14 + 256x15 + 456x16 + 468x17 + 599x18 + 885x19 + 838x20 + 421x21 + 583x22 + 319x23 + 475x24 + 251x25 + 856x26 + 520x27 + 687x28 + 367x29 + 820x30 + 485x31 + 654x32 + 869x33 + 568x34 + 923x35 + 927x36 + 40x37 + 382x38 + 501x39 + 710x40 + 74x41 + 874x42 + 285x43 + 64x44 + 230x45 + 85x46 + 701x47 + 491x48 + 588x49 + 986x50 <= 992
Bounds
 0 <= x1 <= 1
 0 <= x2 <= 1
 0 <= x3 <= 1
 0 <= x4 <= 1
 0 <= x5 <= 1
 0 <= x6 <= 1
 0 <= x7 <= 1
 0 <= x8 <= 1
 0 <= x9 <= 1
 0 <= x10 <= 1
 0 <= x11 <= 1
 0 <= x12 <= 1
 0 <= x13 <= 1
 0 <= x14 <= 1
 0 <= x15 <= 1
 0 <= x16 <= 1
 0 <= x17 <= 1
 0 <= x18 <= 1
 0 <= x19 <= 1
 0 <= x20 <= 1
 0 <= x21 <= 1
 0 <= x22 <= 1
 0 <= x23 <= 1
 0 <= x24 <= 1
 0 <= x25 <= 1
 0 <= x26 <= 1
 0 <= x27 <= 1
 0 <= x28 <= 1
 0 <= x29 <= 1
 0 <= x30 <= 1
 0 <= x31 <= 1
 0 <= x32 <= 1
 0 <= x33 <= 1
 0 <= x34 <= 1
 0 <= x35 <= 1
 0 <= x36 <= 1
 0 <= x37 <= 1
 0 <= x38 <= 1
 0 <= x39 <= 1
 0 <= x40 <= 1
 0 <= x41 <= 1
 0 <= x42 <= 1
 0 <= x43 <= 1
 0 <= x44 <= 1
 0 <= x45 <= 1
 0 <= x46 <= 1
 0 <= x47 <= 1
 0 <= x48 <= 1
 0 <= x49 <= 1
 0 <= x50 <= 1
General
 x1 x2 x3 x4 x5 x6 x7 x8 x9 x10 x11 x12 x13 x14 x15 x16 x17 x18 x19 x20 x21 x22 x23 x24 x25 x26 x27 x28 x29 x30 x31 x32 x33 x34 x35 x36 x37 x38 x39 x40 x41 x42 x43 x44 x45 x46 x47 x48 x49 x50
End