instancias/entrada010.txt
50
992
566 393 923 901 651 537 355 670 221 775 725 775 585 274 609 964 93 276 585 276 62 13 729 965 714 754 840 434 334 356 398 732 815 946 191 711 959 682 384 687 317 707 171 597 210 585 118 217 766 484
641 309 431 67 293 808 419 921 107 88 249 830 815 241 256 456 468 599 885 838 421 583 319 475 251 856 520 687 367 820 485 654 869 568 923 927 40 382 501 710 74 874 285 64 230 85 701 491 588 986